
  18    0


   0  10 2 3 4 7 8 13 14 15 16 17 
   1   3 10 6 5 
   5   2 12 11 
   9   1 5 
   9   1 9 
   8   1 9 
   1   1 10 
   4   1 9 
   5   1 18
   9   1 18
   5   1 18
   7   1 18
   4   1 18
   9   1 18
   3   1 18
   9   1 18
   9   1 18
   0   0 
